(set-logic QF_NRA)
(set-info :source |Benchmarks generated from hycomp (https://es-static.fbk.eu/tools/hycomp/). BMC instances of non-linear hybrid automata taken from: Alessandro Cimatti, Sergio Mover, Stefano Tonetta, A quantifier-free SMT encoding of non-linear hybrid automata, FMCAD 2012 and Alessandro Cimatti, Sergio Mover, Stefano Tonetta, Quantier-free encoding of invariants for Hybrid Systems, Formal Methods in System Design. This instance solves a BMC problem of depth 1 and uses the quantifier free encoding encoding. Contacts: Sergio Mover (mover@fbk.eu), Stefano Tonetta (tonettas@fbk.eu), Alessandro Cimatti (cimatti@fbk.eu).|)
(set-info :smt-lib-version 2.0)
(set-info :category "industrial")
(set-info :status unsat)
;; MathSAT API call trace
;; generated on Mon Mar 19 10:43:26 2012
(declare-fun b.event_is_timed__AT1 () Bool)
(declare-fun b.time__AT0 () Real)
(declare-fun b.speed_y__AT1 () Real)
(declare-fun b.y__AT0 () Real)
(declare-fun b.counter.0__AT0 () Bool)
(declare-fun b.counter.1__AT0 () Bool)
(declare-fun b.time__AT1 () Real)
(declare-fun b.bool_atom__AT0 () Bool)
(declare-fun b.counter.2__AT0 () Bool)
(declare-fun b.delta__AT1 () Real)
(declare-fun b.EVENT.0__AT1 () Bool)
(declare-fun b.delta__AT0 () Real)
(declare-fun b.speed_x__AT1 () Real)
(declare-fun b.EVENT.0__AT0 () Bool)
(declare-fun b.x__AT1 () Real)
(declare-fun b.counter.0__AT1 () Bool)
(declare-fun b.EVENT.1__AT0 () Bool)
(declare-fun b.counter.1__AT1 () Bool)
(declare-fun b.counter.2__AT1 () Bool)
(declare-fun b.counter.3__AT1 () Bool)
(declare-fun b.bool_atom__AT1 () Bool)
(declare-fun b.EVENT.1__AT1 () Bool)
(declare-fun b.speed_loss__AT0 () Real)
(declare-fun b.counter.3__AT0 () Bool)
(declare-fun b.y__AT1 () Real)
(declare-fun b.x__AT0 () Real)
(declare-fun b.speed_y__AT0 () Real)
(declare-fun b.event_is_timed__AT0 () Bool)
(declare-fun b.speed_x__AT0 () Real)
(assert (let ((.def_349 (* (- 1.0) b.speed_x__AT1)))
(let ((.def_350 (* b.speed_x__AT1 .def_349)))
(let ((.def_351 (* (- 1.0) .def_350)))
(let ((.def_382 (* 2.0 .def_351)))
(let ((.def_400 (* (- 1.0) .def_382)))
(let ((.def_401 (* b.delta__AT1 .def_400)))
(let ((.def_402 (* (- 5.0) .def_401)))
(let ((.def_289 (* (- 1.0) b.x__AT1)))
(let ((.def_362 (* b.speed_x__AT1 .def_289)))
(let ((.def_387 (* (- 5.0) .def_362)))
(let ((.def_407 (+ .def_387 .def_402)))
(let ((.def_357 (* b.x__AT1 .def_349)))
(let ((.def_385 (* (- 5.0) .def_357)))
(let ((.def_408 (+ .def_385 .def_407)))
(let ((.def_389 (* (- 49.0) b.delta__AT1)))
(let ((.def_409 (+ .def_389 .def_408)))
(let ((.def_391 (* 5.0 b.speed_y__AT1)))
(let ((.def_410 (+ .def_391 .def_409)))
(let ((.def_411 (<= .def_410 0.0 )))
(let ((.def_363 (* (- 1.0) .def_362)))
(let ((.def_358 (* (- 1.0) .def_357)))
(let ((.def_379 (+ .def_358 .def_363)))
(let ((.def_380 (+ b.speed_y__AT1 .def_379)))
(let ((.def_399 (<= .def_380 0.0 )))
(let ((.def_412 (and .def_399 .def_411)))
(let ((.def_383 (* b.delta__AT1 .def_382)))
(let ((.def_384 (* 5.0 .def_383)))
(let ((.def_393 (+ .def_387 .def_384)))
(let ((.def_394 (+ .def_385 .def_393)))
(let ((.def_395 (+ .def_389 .def_394)))
(let ((.def_396 (+ .def_391 .def_395)))
(let ((.def_397 (<= 0.0 .def_396)))
(let ((.def_381 (<= 0.0 .def_380)))
(let ((.def_398 (and .def_381 .def_397)))
(let ((.def_413 (or .def_398 .def_412)))
(let ((.def_364 (* b.delta__AT1 .def_363)))
(let ((.def_365 (* 10.0 .def_364)))
(let ((.def_359 (* b.delta__AT1 .def_358)))
(let ((.def_360 (* 10.0 .def_359)))
(let ((.def_371 (+ .def_360 .def_365)))
(let ((.def_348 (* b.delta__AT1 b.delta__AT1)))
(let ((.def_352 (* .def_348 .def_351)))
(let ((.def_353 (* 10.0 .def_352)))
(let ((.def_372 (+ .def_353 .def_371)))
(let ((.def_355 (* (- 49.0) .def_348)))
(let ((.def_373 (+ .def_355 .def_372)))
(let ((.def_346 (* b.speed_y__AT1 b.delta__AT1)))
(let ((.def_347 (* 10.0 .def_346)))
(let ((.def_374 (+ .def_347 .def_373)))
(let ((.def_335 (* b.x__AT1 .def_289)))
(let ((.def_367 (* (- 10.0) .def_335)))
(let ((.def_375 (+ .def_367 .def_374)))
(let ((.def_369 (* 10.0 b.y__AT1)))
(let ((.def_376 (+ .def_369 .def_375)))
(let ((.def_377 (<= 0.0 .def_376)))
(let ((.def_336 (<= .def_335 b.y__AT1)))
(let ((.def_378 (and .def_336 .def_377)))
(let ((.def_414 (and .def_378 .def_413)))
(let ((.def_66 (<= b.speed_loss__AT0 (/ 1 2))))
(let ((.def_63 (<= (/ 1 10) b.speed_loss__AT0)))
(let ((.def_67 (and .def_63 .def_66)))
(let ((.def_415 (and .def_67 .def_414)))
(let ((.def_35 (not b.counter.0__AT0)))
(let ((.def_340 (or b.counter.1__AT0 .def_35)))
(let ((.def_38 (not b.counter.2__AT0)))
(let ((.def_341 (or .def_38 .def_340)))
(let ((.def_342 (or b.counter.3__AT0 .def_341)))
(let ((.def_337 (and .def_67 .def_336)))
(let ((.def_332 (not b.EVENT.0__AT1)))
(let ((.def_330 (not b.EVENT.1__AT1)))
(let ((.def_333 (or .def_330 .def_332)))
(let ((.def_237 (not b.counter.1__AT1)))
(let ((.def_4 (not b.counter.0__AT1)))
(let ((.def_323 (or .def_4 .def_237)))
(let ((.def_327 (or b.counter.3__AT1 .def_323)))
(let ((.def_324 (or b.counter.2__AT1 .def_323)))
(let ((.def_8 (not b.counter.2__AT1)))
(let ((.def_322 (or .def_4 .def_8)))
(let ((.def_325 (and .def_322 .def_324)))
(let ((.def_254 (not b.counter.3__AT1)))
(let ((.def_326 (or .def_254 .def_325)))
(let ((.def_328 (and .def_326 .def_327)))
(let ((.def_334 (and .def_328 .def_333)))
(let ((.def_338 (and .def_334 .def_337)))
(let ((.def_317 (<= 0.0 b.delta__AT0)))
(let ((.def_54 (not b.EVENT.0__AT0)))
(let ((.def_52 (not b.EVENT.1__AT0)))
(let ((.def_149 (and .def_52 .def_54)))
(let ((.def_151 (not .def_149)))
(let ((.def_318 (or .def_151 .def_317)))
(let ((.def_319 (or b.EVENT.1__AT0 .def_318)))
(let ((.def_190 (= b.bool_atom__AT0 b.bool_atom__AT1)))
(let ((.def_185 (= b.counter.0__AT1 b.counter.0__AT0)))
(let ((.def_183 (= b.counter.1__AT1 b.counter.1__AT0)))
(let ((.def_181 (= b.counter.2__AT1 b.counter.2__AT0)))
(let ((.def_180 (= b.counter.3__AT1 b.counter.3__AT0)))
(let ((.def_182 (and .def_180 .def_181)))
(let ((.def_184 (and .def_182 .def_183)))
(let ((.def_186 (and .def_184 .def_185)))
(let ((.def_313 (and .def_186 .def_190)))
(let ((.def_314 (or .def_151 .def_313)))
(let ((.def_315 (or b.EVENT.1__AT0 .def_314)))
(let ((.def_302 (* (- 10.0) b.y__AT1)))
(let ((.def_75 (* b.delta__AT0 b.delta__AT0)))
(let ((.def_84 (* (- 49.0) .def_75)))
(let ((.def_305 (+ .def_84 .def_302)))
(let ((.def_73 (* b.speed_y__AT0 b.delta__AT0)))
(let ((.def_74 (* 10.0 .def_73)))
(let ((.def_306 (+ .def_74 .def_305)))
(let ((.def_99 (* 10.0 b.y__AT0)))
(let ((.def_307 (+ .def_99 .def_306)))
(let ((.def_308 (= .def_307 0.0 )))
(let ((.def_296 (* (- 5.0) b.speed_y__AT1)))
(let ((.def_121 (* (- 49.0) b.delta__AT0)))
(let ((.def_297 (+ .def_121 .def_296)))
(let ((.def_123 (* 5.0 b.speed_y__AT0)))
(let ((.def_298 (+ .def_123 .def_297)))
(let ((.def_299 (= .def_298 0.0 )))
(let ((.def_288 (* b.speed_x__AT0 b.delta__AT0)))
(let ((.def_292 (+ .def_289 .def_288)))
(let ((.def_293 (+ b.x__AT0 .def_292)))
(let ((.def_294 (= .def_293 0.0 )))
(let ((.def_175 (= b.speed_x__AT0 b.speed_x__AT1)))
(let ((.def_295 (and .def_175 .def_294)))
(let ((.def_300 (and .def_295 .def_299)))
(let ((.def_309 (and .def_300 .def_308)))
(let ((.def_310 (or .def_151 .def_309)))
(let ((.def_172 (= b.y__AT0 b.y__AT1)))
(let ((.def_169 (= b.x__AT0 b.x__AT1)))
(let ((.def_282 (and .def_169 .def_172)))
(let ((.def_283 (and .def_175 .def_282)))
(let ((.def_178 (= b.speed_y__AT0 b.speed_y__AT1)))
(let ((.def_284 (and .def_178 .def_283)))
(let ((.def_279 (= b.delta__AT0 0.0 )))
(let ((.def_280 (and .def_149 .def_279)))
(let ((.def_281 (not .def_280)))
(let ((.def_285 (or .def_281 .def_284)))
(let ((.def_286 (or b.EVENT.1__AT0 .def_285)))
(let ((.def_271 (and .def_175 .def_178)))
(let ((.def_272 (and .def_186 .def_271)))
(let ((.def_273 (or b.bool_atom__AT0 .def_272)))
(let ((.def_246 (or .def_4 b.counter.0__AT0)))
(let ((.def_245 (or b.counter.0__AT1 .def_35)))
(let ((.def_247 (and .def_245 .def_246)))
(let ((.def_248 (and .def_237 .def_247)))
(let ((.def_249 (or b.counter.1__AT0 .def_248)))
(let ((.def_33 (not b.counter.1__AT0)))
(let ((.def_244 (or b.counter.1__AT1 .def_33)))
(let ((.def_250 (and .def_244 .def_249)))
(let ((.def_262 (and .def_8 .def_250)))
(let ((.def_263 (or b.counter.2__AT0 .def_262)))
(let ((.def_257 (and .def_35 .def_237)))
(let ((.def_258 (or b.counter.1__AT0 .def_257)))
(let ((.def_259 (and .def_244 .def_258)))
(let ((.def_260 (and b.counter.2__AT1 .def_259)))
(let ((.def_261 (or .def_38 .def_260)))
(let ((.def_264 (and .def_261 .def_263)))
(let ((.def_265 (and b.counter.3__AT1 .def_264)))
(let ((.def_266 (or b.counter.3__AT0 .def_265)))
(let ((.def_251 (and b.counter.2__AT1 .def_250)))
(let ((.def_252 (or b.counter.2__AT0 .def_251)))
(let ((.def_240 (or b.counter.1__AT1 b.counter.1__AT0)))
(let ((.def_238 (and b.counter.0__AT1 .def_237)))
(let ((.def_239 (or .def_33 .def_238)))
(let ((.def_241 (and .def_239 .def_240)))
(let ((.def_242 (and .def_8 .def_241)))
(let ((.def_243 (or .def_38 .def_242)))
(let ((.def_253 (and .def_243 .def_252)))
(let ((.def_255 (and .def_253 .def_254)))
(let ((.def_41 (not b.counter.3__AT0)))
(let ((.def_256 (or .def_41 .def_255)))
(let ((.def_267 (and .def_256 .def_266)))
(let ((.def_228 (* b.speed_y__AT0 b.speed_y__AT0)))
(let ((.def_227 (* b.speed_x__AT0 b.speed_x__AT0)))
(let ((.def_229 (+ .def_227 .def_228)))
(let ((.def_209 (* (- 1.0) b.speed_loss__AT0)))
(let ((.def_210 (+ 1.0 .def_209)))
(let ((.def_226 (* .def_210 .def_210)))
(let ((.def_230 (* .def_226 .def_229)))
(let ((.def_232 (* (- 1.0) .def_230)))
(let ((.def_223 (* b.speed_y__AT1 b.speed_y__AT1)))
(let ((.def_233 (+ .def_223 .def_232)))
(let ((.def_221 (* b.speed_x__AT1 b.speed_x__AT1)))
(let ((.def_234 (+ .def_221 .def_233)))
(let ((.def_235 (= .def_234 0.0 )))
(let ((.def_214 (* b.speed_y__AT0 .def_210)))
(let ((.def_197 (* (- 2.0) b.x__AT0)))
(let ((.def_198 (* (- 1.0) .def_197)))
(let ((.def_211 (* .def_198 .def_210)))
(let ((.def_212 (* b.speed_x__AT0 .def_211)))
(let ((.def_217 (+ .def_212 .def_214)))
(let ((.def_206 (* (- 2.0) b.x__AT1)))
(let ((.def_207 (* (- 1.0) .def_206)))
(let ((.def_208 (* b.speed_x__AT1 .def_207)))
(let ((.def_218 (+ .def_208 .def_217)))
(let ((.def_219 (+ b.speed_y__AT1 .def_218)))
(let ((.def_220 (= .def_219 0.0 )))
(let ((.def_236 (and .def_220 .def_235)))
(let ((.def_268 (and .def_236 .def_267)))
(let ((.def_205 (not b.bool_atom__AT0)))
(let ((.def_269 (or .def_205 .def_268)))
(let ((.def_199 (* b.speed_x__AT0 .def_198)))
(let ((.def_200 (+ b.speed_y__AT0 .def_199)))
(let ((.def_201 (<= 0.0 .def_200)))
(let ((.def_202 (not .def_201)))
(let ((.def_58 (* (- 1.0) b.x__AT0)))
(let ((.def_59 (* b.x__AT0 .def_58)))
(let ((.def_195 (= b.y__AT0 .def_59)))
(let ((.def_203 (and .def_195 .def_202)))
(let ((.def_204 (= b.bool_atom__AT0 .def_203)))
(let ((.def_270 (and .def_204 .def_269)))
(let ((.def_274 (and .def_270 .def_273)))
(let ((.def_275 (and .def_169 .def_274)))
(let ((.def_276 (and .def_172 .def_275)))
(let ((.def_277 (or .def_149 .def_276)))
(let ((.def_278 (or b.EVENT.1__AT0 .def_277)))
(let ((.def_287 (and .def_278 .def_286)))
(let ((.def_311 (and .def_287 .def_310)))
(let ((.def_156 (= b.time__AT0 b.time__AT1)))
(let ((.def_170 (and .def_156 .def_169)))
(let ((.def_173 (and .def_170 .def_172)))
(let ((.def_176 (and .def_173 .def_175)))
(let ((.def_179 (and .def_176 .def_178)))
(let ((.def_187 (and .def_179 .def_186)))
(let ((.def_191 (and .def_187 .def_190)))
(let ((.def_192 (or .def_52 .def_191)))
(let ((.def_159 (* (- 1.0) b.time__AT1)))
(let ((.def_162 (+ b.delta__AT0 .def_159)))
(let ((.def_163 (+ b.time__AT0 .def_162)))
(let ((.def_164 (= .def_163 0.0 )))
(let ((.def_165 (or .def_151 .def_164)))
(let ((.def_166 (or b.EVENT.1__AT0 .def_165)))
(let ((.def_157 (or .def_149 .def_156)))
(let ((.def_158 (or b.EVENT.1__AT0 .def_157)))
(let ((.def_167 (and .def_158 .def_166)))
(let ((.def_193 (and .def_167 .def_192)))
(let ((.def_153 (= .def_151 b.event_is_timed__AT1)))
(let ((.def_150 (= b.event_is_timed__AT0 .def_149)))
(let ((.def_154 (and .def_150 .def_153)))
(let ((.def_194 (and .def_154 .def_193)))
(let ((.def_312 (and .def_194 .def_311)))
(let ((.def_316 (and .def_312 .def_315)))
(let ((.def_320 (and .def_316 .def_319)))
(let ((.def_321 (and .def_52 .def_320)))
(let ((.def_339 (and .def_321 .def_338)))
(let ((.def_343 (and .def_339 .def_342)))
(let ((.def_76 (* (- 1.0) b.speed_x__AT0)))
(let ((.def_77 (* b.speed_x__AT0 .def_76)))
(let ((.def_78 (* (- 1.0) .def_77)))
(let ((.def_112 (* 2.0 .def_78)))
(let ((.def_132 (* (- 1.0) .def_112)))
(let ((.def_133 (* b.delta__AT0 .def_132)))
(let ((.def_134 (* (- 5.0) .def_133)))
(let ((.def_91 (* b.speed_x__AT0 .def_58)))
(let ((.def_119 (* (- 5.0) .def_91)))
(let ((.def_139 (+ .def_119 .def_134)))
(let ((.def_86 (* b.x__AT0 .def_76)))
(let ((.def_117 (* (- 5.0) .def_86)))
(let ((.def_140 (+ .def_117 .def_139)))
(let ((.def_141 (+ .def_121 .def_140)))
(let ((.def_142 (+ .def_123 .def_141)))
(let ((.def_143 (<= .def_142 0.0 )))
(let ((.def_92 (* (- 1.0) .def_91)))
(let ((.def_87 (* (- 1.0) .def_86)))
(let ((.def_109 (+ .def_87 .def_92)))
(let ((.def_110 (+ b.speed_y__AT0 .def_109)))
(let ((.def_131 (<= .def_110 0.0 )))
(let ((.def_144 (and .def_131 .def_143)))
(let ((.def_113 (* b.delta__AT0 .def_112)))
(let ((.def_115 (* 5.0 .def_113)))
(let ((.def_125 (+ .def_119 .def_115)))
(let ((.def_126 (+ .def_117 .def_125)))
(let ((.def_127 (+ .def_121 .def_126)))
(let ((.def_128 (+ .def_123 .def_127)))
(let ((.def_129 (<= 0.0 .def_128)))
(let ((.def_111 (<= 0.0 .def_110)))
(let ((.def_130 (and .def_111 .def_129)))
(let ((.def_145 (or .def_130 .def_144)))
(let ((.def_93 (* b.delta__AT0 .def_92)))
(let ((.def_94 (* 10.0 .def_93)))
(let ((.def_88 (* b.delta__AT0 .def_87)))
(let ((.def_89 (* 10.0 .def_88)))
(let ((.def_101 (+ .def_89 .def_94)))
(let ((.def_79 (* .def_75 .def_78)))
(let ((.def_80 (* 10.0 .def_79)))
(let ((.def_102 (+ .def_80 .def_101)))
(let ((.def_103 (+ .def_84 .def_102)))
(let ((.def_104 (+ .def_74 .def_103)))
(let ((.def_97 (* (- 10.0) .def_59)))
(let ((.def_105 (+ .def_97 .def_104)))
(let ((.def_106 (+ .def_99 .def_105)))
(let ((.def_107 (<= 0.0 .def_106)))
(let ((.def_60 (<= .def_59 b.y__AT0)))
(let ((.def_108 (and .def_60 .def_107)))
(let ((.def_146 (and .def_108 .def_145)))
(let ((.def_147 (and .def_67 .def_146)))
(let ((.def_68 (and .def_60 .def_67)))
(let ((.def_55 (or .def_52 .def_54)))
(let ((.def_45 (or .def_33 .def_35)))
(let ((.def_49 (or b.counter.3__AT0 .def_45)))
(let ((.def_46 (or b.counter.2__AT0 .def_45)))
(let ((.def_44 (or .def_35 .def_38)))
(let ((.def_47 (and .def_44 .def_46)))
(let ((.def_48 (or .def_41 .def_47)))
(let ((.def_50 (and .def_48 .def_49)))
(let ((.def_56 (and .def_50 .def_55)))
(let ((.def_69 (and .def_56 .def_68)))
(let ((.def_36 (and .def_33 .def_35)))
(let ((.def_39 (and .def_36 .def_38)))
(let ((.def_42 (and .def_39 .def_41)))
(let ((.def_30 (= b.speed_y__AT0 1.0 )))
(let ((.def_27 (= b.speed_x__AT0 1.0 )))
(let ((.def_23 (= b.y__AT0 10.0 )))
(let ((.def_19 (= b.x__AT0 0.0 )))
(let ((.def_15 (= b.time__AT0 0.0 )))
(let ((.def_17 (and .def_15 b.event_is_timed__AT0)))
(let ((.def_20 (and .def_17 .def_19)))
(let ((.def_24 (and .def_20 .def_23)))
(let ((.def_28 (and .def_24 .def_27)))
(let ((.def_31 (and .def_28 .def_30)))
(let ((.def_43 (and .def_31 .def_42)))
(let ((.def_70 (and .def_43 .def_69)))
(let ((.def_6 (or .def_4 b.counter.1__AT1)))
(let ((.def_9 (or .def_6 .def_8)))
(let ((.def_11 (or .def_9 b.counter.3__AT1)))
(let ((.def_12 (not .def_11)))
(let ((.def_71 (and .def_12 .def_70)))
(let ((.def_148 (and .def_71 .def_147)))
(let ((.def_344 (and .def_148 .def_343)))
(let ((.def_416 (and .def_344 .def_415)))
.def_416)))))))))))))))))))))))))))))))))))))))))))))))))))))))))))))))))))))))))))))))))))))))))))))))))))))))))))))))))))))))))))))))))))))))))))))))))))))))))))))))))))))))))))))))))))))))))))))))))))))))))))))))))))))))))))))))))))))))))))))))))))))))))))))))))))))))))))))))))))))))))))))))))))))))))))))))))))))))))))))))))))))))))))
(check-sat)
(exit)
